networks/zoo_22_44/zoo_22_44-lower.txt
Number of groups: 15
Flow 2: {1 9 0} 
Flow 6: {2 9 0} {9 20 1} 
Flow 8: {3 9 0} {9 2 1} {2 13 2} 
Flow 14: {4 9 0} {9 5 1} {5 16 2} 
Flow 16: {5 9 0} 
Flow 17: {6 9 0} 
Flow 18: {7 9 0} {9 1 1} {1 12 2} 
Flow 24: {8 9 0} {9 3 1} {3 14 2} 
Flow 28: {9 10 0} {10 21 1} 
Flow 29: {9 11 0} {11 22 1} 
Flow 35: {9 6 0} {6 17 1} 
Flow 36: {9 7 0} {7 18 1} 
Flow 37: {9 8 0} {8 19 1} 
Flow 42: {10 9 0} {9 4 1} {4 15 2} 
Flow 44: {11 9 0} 
Time taken running everything: 0 seconds
