networks/zoo_22_44/zoo_22_44-lower.sol
<?xml version = "1.0" encoding="UTF-8" standalone="yes"?>
<CPLEXSolution version="1.2">
 <header
   problemName="networks/zoo_22_44/zoo_22_44-lower.lp"
   solutionName="incumbent"
   solutionIndex="-1"
   objectiveValue="11"
   solutionTypeValue="3"
   solutionTypeString="primal"
   solutionStatusValue="101"
   solutionStatusString="integer optimal solution"
   solutionMethodString="mip"
   primalFeasible="1"
   dualFeasible="1"
   MIPNodes="0"
   MIPIterations="0"
   writeLevel="3"/>
 <quality
   epInt="1.0000000000000001e-05"
   epRHS="9.9999999999999995e-07"
   maxIntInfeas="0"
   maxPrimalInfeas="0"
   maxX="1"
   maxSlack="1"/>
 <variables>
  <variable name="Y(1,2)" index="1" value="1"/>
  <variable name="Y(2,4)" index="25" value="1"/>
  <variable name="Y(3,9)" index="52" value="1"/>
  <variable name="Y(4,1)" index="66" value="1"/>
  <variable name="Y(10,5)" index="202" value="1"/>
  <variable name="Y(24,3)" index="508" value="1"/>
  <variable name="Y(28,10)" index="603" value="1"/>
  <variable name="Y(29,11)" index="626" value="1"/>
  <variable name="Y(35,6)" index="753" value="1"/>
  <variable name="Y(36,7)" index="776" value="1"/>
  <variable name="Y(37,8)" index="799" value="1"/>
  <variable name="X(1,9,1)" index="968" value="1"/>
  <variable name="X(1,12,4)" index="1015" value="1"/>
  <variable name="X(2,9,4)" index="1059" value="1"/>
  <variable name="X(2,13,1)" index="1100" value="1"/>
  <variable name="X(3,9,7)" index="1150" value="1"/>
  <variable name="X(3,14,24)" index="1211" value="1"/>
  <variable name="X(4,9,12)" index="1243" value="1"/>
  <variable name="X(4,15,2)" index="1277" value="1"/>
  <variable name="X(5,9,16)" index="1335" value="1"/>
  <variable name="X(5,16,10)" index="1373" value="1"/>
  <variable name="X(6,9,17)" index="1424" value="1"/>
  <variable name="X(6,17,35)" index="1486" value="1"/>
  <variable name="X(7,9,18)" index="1513" value="1"/>
  <variable name="X(7,18,36)" index="1575" value="1"/>
  <variable name="X(8,9,22)" index="1605" value="1"/>
  <variable name="X(8,19,37)" index="1664" value="1"/>
  <variable name="X(9,1,4)" index="1675" value="1"/>
  <variable name="X(9,2,1)" index="1716" value="1"/>
  <variable name="X(9,3,24)" index="1783" value="1"/>
  <variable name="X(9,4,2)" index="1805" value="1"/>
  <variable name="X(9,5,10)" index="1857" value="1"/>
  <variable name="X(9,6,35)" index="1926" value="1"/>
  <variable name="X(9,7,36)" index="1971" value="1"/>
  <variable name="X(9,8,37)" index="2016" value="1"/>
  <variable name="X(9,10,28)" index="2051" value="1"/>
  <variable name="X(9,11,29)" index="2096" value="1"/>
  <variable name="X(9,20,3)" index="2114" value="1"/>
  <variable name="X(10,9,40)" index="2195" value="1"/>
  <variable name="X(10,21,28)" index="2227" value="1"/>
  <variable name="X(11,9,44)" index="2287" value="1"/>
  <variable name="X(11,22,29)" index="2316" value="1"/>
 </variables>
</CPLEXSolution>
